minizinc/sudoku_problems2/sudoku_p16.dzn
%
% sudoku_p16.dzn
% See http://www.hakank.org/minizinc/sudoku_gcc.mzn
% 
% This problem is problem 16 from
% Gecode's sudoku.cpp
% http://www.gecode.org/gecode-doc-latest/sudoku_8cpp-source.html
% 
x = array2d(1..n, 1..n, [   
% Puzzle 11 from http://www.sudoku.org.uk/bifurcation.htm
% 16
  _,  _,  _,  _,  3,  _,  7,  9,  _,
  3,  _,  _,  _,  _,  _,  _,  _,  5,
  _,  _,  _,  4,  _,  7,  3,  _,  6,
  _,  5,  3,  _,  9,  4,  _,  7,  _,
  _,  _,  _,  _,  7,  _,  _,  _,  _,
  _,  1,  _,  8,  2,  _,  6,  4,  _,
  7,  _,  1,  9,  _,  8,  _,  _,  _,
  8,  _,  _,  _,  _,  _,  _,  _,  1,
  _,  9,  4,  _,  1,  _,  _,  _,  _
]);

n = 9;


